NAME 
ROWS
 N  OBJ
 L  R0      
 L  R1      
 E  R2      
COLUMNS
    MARKER    'MARKER'                 'INTORG'
    I0(3)     OBJ       -748
    I0(3)     R0        -298
    I0(3)     R1        -649
    I0(3)     R2        864
    I1(3)     OBJ       -14
    I1(3)     R0        -184
    I1(3)     R1        -80
    I1(3)     R2        475
    I2(3)     OBJ       -198
    I2(3)     R0        -177
    I2(3)     R1        -828
    I2(3)     R2        705
    I3(3)     OBJ       -912
    I3(3)     R0        -496
    I3(3)     R1        -826
    I3(3)     R2        692
    I4(3)     OBJ       -668
    I4(3)     R0        -96
    I4(3)     R1        -575
    I4(3)     R2        300
    I5(3)     OBJ       -102
    I5(3)     R0        -845
    I5(3)     R1        -923
    I5(3)     R2        279
    I6(3)     OBJ       -455
    I6(3)     R0        -598
    I6(3)     R1        -671
    I6(3)     R2        614
    I7(3)     OBJ       -133
    I7(3)     R0        -550
    I7(3)     R1        -173
    I7(3)     R2        970
    I8(3)     OBJ       -960
    I8(3)     R0        -978
    I8(3)     R1        -473
    I8(3)     R2        451
    I9(3)     OBJ       -837
    I9(3)     R0        -557
    I9(3)     R1        -648
    I9(3)     R2        87
    I10(3)    OBJ       -29
    I10(3)    R0        -387
    I10(3)    R1        -729
    I10(3)    R2        618
    I11(3)    OBJ       -686
    I11(3)    R0        -7
    I11(3)    R1        -859
    I11(3)    R2        180
    I12(3)    OBJ       -326
    I12(3)    R0        -242
    I12(3)    R1        -654
    I12(3)    R2        945
    I13(3)    OBJ       -448
    I13(3)    R0        -713
    I13(3)    R1        -971
    I13(3)    R2        272
    I14(3)    OBJ       -203
    I14(3)    R0        -454
    I14(3)    R1        -571
    I14(3)    R2        150
    I15(3)    OBJ       -70
    I15(3)    R0        -445
    I15(3)    R1        -108
    I15(3)    R2        516
    I16(3)    OBJ       -1000
    I16(3)    R0        -783
    I16(3)    R1        -415
    I16(3)    R2        380
    I17(3)    OBJ       -817
    I17(3)    R0        -454
    I17(3)    R1        -354
    I17(3)    R2        565
    I18(3)    OBJ       -144
    I18(3)    R0        -261
    I18(3)    R1        -561
    I18(3)    R2        869
    I19(3)    OBJ       -662
    I19(3)    R0        -926
    I19(3)    R1        -676
    I19(3)    R2        941
    I20(3)    OBJ       -496
    I20(3)    R0        -115
    I20(3)    R1        -279
    I20(3)    R2        240
    I21(3)    OBJ       -121
    I21(3)    R0        -757
    I21(3)    R1        -676
    I21(3)    R2        148
    I22(3)    OBJ       -223
    I22(3)    R0        -47
    I22(3)    R1        -432
    I22(3)    R2        616
    I23(3)    OBJ       -153
    I23(3)    R0        -337
    I23(3)    R1        -326
    I23(3)    R2        672
    I24(3)    OBJ       -472
    I24(3)    R0        -909
    I24(3)    R1        -12
    I24(3)    R2        474
    I25(3)    OBJ       -872
    I25(3)    R0        -518
    I25(3)    R1        -341
    I25(3)    R2        628
    I26(3)    OBJ       -577
    I26(3)    R0        -209
    I26(3)    R1        -844
    I26(3)    R2        12
    I27(3)    OBJ       -264
    I27(3)    R0        -486
    I27(3)    R1        -220
    I27(3)    R2        317
    I28(3)    OBJ       -436
    I28(3)    R0        -782
    I28(3)    R1        -826
    I28(3)    R2        848
    I29(3)    OBJ       -164
    I29(3)    R0        -644
    I29(3)    R1        -625
    I29(3)    R2        837
    I30(1)    R2        1
    MARKER    'MARKER'                 'INTEND'
RHS
    RHS1      R0        -10199
    RHS1      R1        -10983
    RHS1      R2        7832
BOUNDS
 UP BND1      I0(3)     1
 UP BND1      I1(3)     1
 UP BND1      I2(3)     1
 UP BND1      I3(3)     1
 UP BND1      I4(3)     1
 UP BND1      I5(3)     1
 UP BND1      I6(3)     1
 UP BND1      I7(3)     1
 UP BND1      I8(3)     1
 UP BND1      I9(3)     1
 UP BND1      I10(3)    1
 UP BND1      I11(3)    1
 UP BND1      I12(3)    1
 UP BND1      I13(3)    1
 UP BND1      I14(3)    1
 UP BND1      I15(3)    1
 UP BND1      I16(3)    1
 UP BND1      I17(3)    1
 UP BND1      I18(3)    1
 UP BND1      I19(3)    1
 UP BND1      I20(3)    1
 UP BND1      I21(3)    1
 UP BND1      I22(3)    1
 UP BND1      I23(3)    1
 UP BND1      I24(3)    1
 UP BND1      I25(3)    1
 UP BND1      I26(3)    1
 UP BND1      I27(3)    1
 UP BND1      I28(3)    1
 UP BND1      I29(3)    1
 LI BND1      I30(1)    0
ENDATA
